100
14 4
42 0
3 1
42 4
15 0
18 4
22 3
38 4
10 2
4 1
24 3
29 3
38 2
19 3
3 4
23 0
15 4
13 4
28 4
11 3
39 0
40 0
30 3
36 4
36 2
3 3
38 0
28 3
24 0
6 2
10 0
13 0
1 4
30 2
25 1
39 4
41 0
25 3
14 0
4 4
7 0
43 1
31 1
27 4
4 0
33 0
23 4
37 4
21 4
36 1
18 1
25 0
4 3
34 4
6 4
0 3
2 3
30 0
27 2
20 0
7 3
42 3
29 4
34 3
42 1
9 0
33 4
10 3
14 3
31 2
16 3
41 4
22 0
13 3
7 1
16 0
22 4
6 0
27 1
31 0
40 1
38 1
18 0
34 0
21 0
29 0
0 0
20 4
12 2
16 4
25 4
43 0
5 4
27 0
32 3
20 3
24 1
28 0
43 3
2 1

